row=9;
column=9;

Board=[|3,0,4,0,2,0,1,0,5|0,0,0,0,0,0,0,2,0|2,0,0,8,1,5,0,0,0|0,9,0,0,8,0,0,0,0|4,1,5,0,0,0,2,0,8|8,0,2,5,0,0,6,4,0|5,0,0,0,0,6,0,7,0|0,4,6,0,0,0,0,0,2|0,8,0,0,0,3,0,6,4|];
OE=[|1,0,0,1,0,1,1,0,1|1,1,0,1,0,0,1,0,1|0,1,1,0,1,1,0,1,0|0,1,1,0,0,0,1,1,1|0,1,1,0,1,1,0,1,0|0,1,0,1,1,1,0,0,1|1,0,1,1,0,0,0,1,1|1,0,0,1,1,0,1,1,0|1,0,1,0,1,1,1,0,0|];
